row=6;
column=6;
Board=[|5,2,1,6,3,4|1,3,4,2,6,5|2,4,3,5,1,6|4,5,6,3,2,1|3,6,5,1,4,2|6,1,2,4,5,3|];
horizontal=[|1,1,0,1,0|0,0,1,0,1|0,1,0,1,0|0,0,1,1,1|0,1,1,0,1|1,0,0,0,1|];
vertical=[|1,0,0,1,0,0|0,0,1,0,1,0|0,0,0,1,0,1|1,0,1,1,0,0|0,1,1,0,0,0|];
